c A SAT instance generated from a 3-CNF formula that had 33 clauses and 11 variables
p cnf 11 33
8 -1 -11 0
-10 -5 -1 0
-2 -1 -6 0
10 9 -7 0
-2 -9 -8 0
-3 -7 -9 0
2 -9 5 0
-10 9 2 0
1 11 -7 0
3 -8 6 0
1 7 5 0
-9 7 -3 0
4 -5 -1 0
4 5 -6 0
-9 5 -7 0
-5 8 6 0
6 -7 -9 0
8 -2 7 0
11 -10 -5 0
-9 -5 -8 0
1 9 -2 0
4 -7 -10 0
-8 -9 1 0
-10 -9 -7 0
-6 -5 7 0
8 -7 -1 0
-2 4 -10 0
-9 8 -1 0
-5 3 11 0
-5 1 -3 0
-9 11 6 0
-9 -8 2 0
-11 -9 5 0
